qbf_easy_train/easy_2122_UNSAT.qdimacs
p cnf 31 80
a 17 1 0
e 2 3 4 5 6 7 8 9 10 11 12 13 14 15 16 18 19 20 21 22 23 24 25 26 27 28 29 30 31 0
3 1 0
3 -2 0
-1 2 -3 0
6 -4 0
6 5 0
4 -5 -6 0
-3 6 -7 0
3 -6 -7 0
-3 -6 7 0
3 6 7 0
9 1 0
9 -8 0
-1 8 -9 0
-9 -10 -11 0
9 10 -11 0
-9 10 11 0
9 -10 11 0
-13 -12 0
-13 4 0
12 -4 13 0
14 -12 0
14 12 0
-15 14 0
-15 -8 0
-14 8 15 0
-8 15 -16 0
8 -15 -16 0
-8 -15 16 0
8 15 16 0
-17 -13 0
-17 -16 0
13 16 17 0
18 -4 0
18 -1 0
4 1 -18 0
19 17 0
19 -18 0
-17 18 -19 0
19 1 -20 0
-19 -1 -20 0
19 -1 20 0
-19 1 20 0
-21 -11 0
-21 -20 0
11 20 21 0
-22 7 0
-22 -21 0
-7 21 22 0
23 -24 0
-23 -24 0
15 1 -25 0
-15 -1 -25 0
15 -1 25 0
-15 1 25 0
-26 24 0
-26 25 0
-24 -25 26 0
-27 23 0
-27 4 0
-23 -4 27 0
28 1 0
28 1 0
-1 -28 0
29 27 0
29 -28 0
-27 28 -29 0
-30 26 0
-30 29 0
-26 -29 30 0
-31 22 0
-31 -30 0
-22 30 31 0
-13 26 -6 0
-10 -3 -5 11 -7 14 0
22 -5 18 -21 -8 -23 -31 0
13 -4 24 20 -11 0
1 -27 -17 -13 -3 19 -20 0
10 -4 27 2 0
-26 -5 -31 27 -28 -9 0
31 0
