sat_easy_train/easy_2122_UNSAT.dimacs
p cnf 129 429
-4 -2 0
-4 -3 0
2 3 4 0
-7 5 0
-7 -6 0
-5 6 7 0
4 -7 -8 0
-4 7 -8 0
4 7 8 0
-4 -7 8 0
9 -1 0
9 8 0
1 -8 -9 0
11 -9 0
11 -10 0
9 10 -11 0
12 8 -13 0
-12 -8 -13 0
12 -8 13 0
-12 8 13 0
-15 14 0
-15 -12 0
-14 12 15 0
16 13 0
16 15 0
-13 -15 -16 0
12 -16 -17 0
-12 16 -17 0
12 16 17 0
-12 -16 17 0
18 17 0
18 1 0
-17 -1 -18 0
19 -15 0
19 7 0
15 -7 -19 0
20 13 0
20 19 0
-13 -19 -20 0
-22 21 0
-22 4 0
-21 -4 22 0
-23 -22 0
-23 22 0
-12 24 -25 0
12 -24 -25 0
-12 -24 25 0
12 24 25 0
-26 -23 0
-26 25 0
23 -25 26 0
27 26 0
27 -5 0
-26 5 -27 0
-28 20 0
-28 -27 0
-20 27 28 0
29 3 0
29 -28 0
-3 28 -29 0
-18 29 -30 0
18 -29 -30 0
-18 -29 30 0
18 29 30 0
31 10 0
31 -4 0
-10 4 -31 0
32 -7 0
32 -10 0
7 10 -32 0
31 32 -33 0
-31 -32 -33 0
31 -32 33 0
-31 32 33 0
1 -21 -34 0
-1 21 -34 0
1 21 34 0
-1 -21 34 0
35 -34 0
35 -19 0
34 19 -35 0
-36 33 0
-36 35 0
-33 -35 36 0
-20 -3 -37 0
20 3 -37 0
-20 3 37 0
20 -3 37 0
36 37 -38 0
-36 -37 -38 0
36 -37 38 0
-36 37 38 0
30 -38 -39 0
-30 38 -39 0
30 38 39 0
-30 -38 39 0
-41 -3 0
-41 40 0
3 -40 41 0
-41 8 -42 0
41 -8 -42 0
-41 -8 42 0
41 8 42 0
42 -43 0
-42 -43 0
-44 39 0
-44 -43 0
-39 43 44 0
-46 45 0
-46 7 0
-45 -7 46 0
47 33 0
47 -46 0
-33 46 -47 0
-25 -49 -50 0
25 49 -50 0
-25 49 50 0
25 -49 50 0
-48 -50 -51 0
48 50 -51 0
-48 50 51 0
48 -50 51 0
-52 23 0
-52 7 0
-23 -7 52 0
53 52 0
53 -13 0
-52 13 -53 0
51 53 -54 0
-51 -53 -54 0
51 -53 54 0
-51 53 54 0
-55 47 0
-55 -54 0
-47 54 55 0
-25 -26 -56 0
25 26 -56 0
-25 26 56 0
25 -26 56 0
57 2 0
57 -50 0
-2 50 -57 0
-56 57 -58 0
56 -57 -58 0
-56 -57 58 0
56 57 58 0
-12 3 -59 0
12 -3 -59 0
-12 -3 59 0
12 3 59 0
-60 -48 0
-60 -4 0
48 4 60 0
61 60 0
61 -21 0
-60 21 -61 0
62 59 0
62 -61 0
-59 61 -62 0
50 3 -63 0
-50 -3 -63 0
50 -3 63 0
-50 3 63 0
-25 -2 -64 0
25 2 -64 0
-25 2 64 0
25 -2 64 0
63 64 -65 0
-63 -64 -65 0
63 -64 65 0
-63 64 65 0
-66 -63 0
-66 48 0
63 -48 66 0
22 -66 -67 0
-22 66 -67 0
22 66 67 0
-22 -66 67 0
-68 -57 0
-68 23 0
57 -23 68 0
-68 40 -69 0
68 -40 -69 0
-68 -40 69 0
68 40 69 0
-70 69 0
-70 -12 0
-69 12 70 0
71 -67 0
71 70 0
67 -70 -71 0
-72 -13 0
-72 19 0
13 -19 72 0
73 -12 0
73 72 0
12 -72 -73 0
74 -45 0
74 73 0
45 -73 -74 0
75 71 0
75 74 0
-71 -74 -75 0
76 22 0
76 12 0
-22 -12 -76 0
77 63 0
77 76 0
-63 -76 -77 0
-78 -75 0
-78 -77 0
75 77 78 0
65 78 -79 0
-65 -78 -79 0
65 -78 79 0
-65 78 79 0
-80 -62 0
-80 -79 0
62 79 80 0
81 58 0
81 -80 0
-58 80 -81 0
-82 55 0
-82 81 0
-55 -81 82 0
83 -44 0
83 -82 0
44 82 -83 0
84 11 0
84 -83 0
-11 83 -84 0
-86 -85 0
-86 -6 0
85 6 86 0
-15 86 -87 0
15 -86 -87 0
-15 -86 87 0
15 86 87 0
-88 87 0
-88 -73 0
-87 73 88 0
-21 49 -89 0
21 -49 -89 0
-21 -49 89 0
21 49 89 0
-89 -1 -90 0
89 1 -90 0
-89 1 90 0
89 -1 90 0
88 -90 -91 0
-88 90 -91 0
88 90 91 0
-88 -90 91 0
92 48 0
92 -15 0
-48 15 -92 0
46 -92 -93 0
-46 92 -93 0
46 92 93 0
-46 -92 93 0
-93 -20 -94 0
93 20 -94 0
-93 20 94 0
93 -20 94 0
95 91 0
95 94 0
-91 -94 -95 0
-96 49 0
-96 -49 0
97 6 0
97 -5 0
-6 5 -97 0
98 96 0
98 97 0
-96 -97 -98 0
99 68 0
99 48 0
-68 -48 -99 0
-100 98 0
-100 -99 0
-98 99 100 0
57 -26 -102 0
-57 26 -102 0
57 26 102 0
-57 -26 102 0
103 -101 0
103 -102 0
101 102 -103 0
-10 7 -104 0
10 -7 -104 0
-10 -7 104 0
10 7 104 0
34 104 -105 0
-34 -104 -105 0
34 -104 105 0
-34 104 105 0
106 1 0
106 17 0
-1 -17 -106 0
107 105 0
107 106 0
-105 -106 -107 0
108 87 0
108 -72 0
-87 72 -108 0
23 -72 -109 0
-23 72 -109 0
23 72 109 0
-23 -72 109 0
-110 7 0
-110 -12 0
-7 12 110 0
111 109 0
111 -110 0
-109 110 -111 0
112 -108 0
112 -111 0
108 111 -112 0
-113 107 0
-113 -112 0
-107 112 113 0
-17 -89 -114 0
17 89 -114 0
-17 89 114 0
17 -89 114 0
115 -72 0
115 -45 0
72 45 -115 0
-116 31 0
-116 -16 0
-31 16 116 0
117 -116 0
117 -87 0
116 87 -117 0
118 -26 0
118 117 0
26 -117 -118 0
-119 115 0
-119 -118 0
-115 118 119 0
120 -19 0
120 40 0
19 -40 -120 0
-121 34 0
-121 120 0
-34 -120 121 0
-122 -121 0
-122 -50 0
121 50 122 0
123 -119 0
123 -122 0
119 122 -123 0
124 -114 0
124 -123 0
114 123 -124 0
113 -124 -125 0
-113 124 -125 0
113 124 125 0
-113 -124 125 0
-126 103 0
-126 125 0
-103 -125 126 0
-127 100 0
-127 126 0
-100 -126 127 0
-95 127 -128 0
95 -127 -128 0
-95 -127 128 0
95 127 128 0
-129 -84 0
-129 128 0
84 -128 129 0
-77 -81 0
89 78 37 -47 -115 0
60 26 -110 58 97 0
-105 99 -2 0
55 -110 0
1 -45 -89 -14 93 0
37 39 38 -126 -103 0
112 83 3 -20 -89 0
69 -112 59 0
26 -83 0
-75 -104 -77 -24 -97 0
-68 -32 -2 0
21 -16 0
-27 111 -94 112 0
111 25 -104 36 93 0
9 80 -43 0
1 80 13 -90 0
45 90 0
109 -7 74 0
-76 12 129 126 0
-100 -111 -61 -98 -67 0
121 -68 -42 110 0
12 75 -124 0
36 100 -73 0
8 5 31 0
-75 111 -115 -74 0
89 -106 14 0
116 -70 24 0
22 -18 70 -93 108 0
-9 96 -118 -85 -59 0
86 -91 0
-76 1 30 -11 -64 0
-121 70 -57 0
-116 65 -80 -123 121 -107 0
89 53 -129 0
-66 -31 -70 0
51 -29 -80 123 48 0
36 -80 0
85 -56 -83 93 -33 0
-111 -30 -29 -40 -77 -50 0
-52 125 114 72 103 0
23 -37 -28 77 106 0
36 -93 0
101 57 -7 62 -125 2 0
-34 97 0
1 34 -70 61 0
77 35 -82 -115 0
44 24 -76 35 14 0
-122 10 -96 26 0
39 -52 -116 82 -129 0
20 93 35 -110 83 13 0
-107 -17 117 -11 -99 0
126 39 0
124 -75 5 91 36 0
-127 -89 94 10 0
38 -49 0
129 0
